temp.txt
(lemma (= a_rc_3 (|_nested_datatype_prefix_Array_[Int_T]_rc__0_4| (|_nested_datatype_prefix_Array_[Int_T]_rc__0_4| a_rc_3))) :source NONE)
(lemma (let ((_let_1 (|_nested_datatype_prefix_Array_[Int_T]_rc__0_4| a_rc_3))) (= (select _let_1 0) (car (nested_datatype_prefix_reverse_6 _let_1)))) :source NONE)
(lemma (let ((_let_1 (nested_datatype_prefix_reverse_6 (|_nested_datatype_prefix_Array_[Int_T]_rc__0_4| a_rc_3)))) (or (= _let_1 nil_Int_T) ((_ is cons) _let_1))) :source DATATYPES_SPLIT)
TheoryEngine::getEqualityStatus: type mismatch
  a = a_rc_3
  b = (|_nested_datatype_prefix_Array_[Int_T]_rc__0_4| a_rc_3)
